65 11 15 16 73 79 7 6 8 46 4 2 100 70 
69 98 53 99 52 86 87 9 10 55 68 81 96 71 93 94 80 
61 42 39 36 43 45 5 3 1 44 41 38 40 35 37 72 54 
64 20 23 19 49 56 66 
91 95 50 34 31 29 27 26 28 33 30 32 85 63 76 89 18 48 21 25 77 75 58 57 83 
88 60 78 17 47 14 12 
92 67 62 84 51 22 24 74 59 97 13 82 90 
